Ordonnancement/plne/source/glpk_resultat/3job/3job_15.sol
Problem:    glpsolRcpsp
Rows:       187
Columns:    64 (63 integer, 63 binary)
Non-zeros:  1063
Status:     INTEGER OPTIMAL
Objective:  obj = 15 (MINimum)

   No.   Row name        Activity     Lower bound   Upper bound
------ ------------    ------------- ------------- -------------
     1 periode[1]                  8             8             = 
     2 periode[2]                  7             7             = 
     3 periode[3]                  6             6             = 
     4 complet[1,1]                6                           8 
     5 complet[1,2]                5                           8 
     6 complet[1,3]                4                           8 
     7 complet[1,4]                3                           8 
     8 complet[1,5]                2                           8 
     9 complet[1,6]                1                           8 
    10 complet[1,7]                0                           8 
    11 complet[1,8]                8                           8 
    12 complet[1,9]                0                           8 
    13 complet[1,10]
                                   0                           8 
    14 complet[1,11]
                                   0                           8 
    15 complet[1,12]
                                   0                           8 
    16 complet[1,13]
                                   0                           8 
    17 complet[1,14]
                                   0                           8 
    18 complet[1,15]
                                   0                           8 
    19 complet[1,16]
                                   0                           8 
    20 complet[1,17]
                                   0                           8 
    21 complet[1,18]
                                   0                           8 
    22 complet[1,19]
                                   0                           8 
    23 complet[2,1]                7                           7 
    24 complet[2,2]                7                           7 
    25 complet[2,3]                7                           7 
    26 complet[2,4]                7                           7 
    27 complet[2,5]                7                           7 
    28 complet[2,6]                7                           7 
    29 complet[2,7]                7                           7 
    30 complet[2,8]               -1                           7 
    31 complet[2,9]                5                           7 
    32 complet[2,10]
                                   4                           7 
    33 complet[2,11]
                                   3                           7 
    34 complet[2,12]
                                   2                           7 
    35 complet[2,13]
                                   1                           7 
    36 complet[2,14]
                                   0                           7 
    37 complet[2,15]
                                   7                           7 
    38 complet[2,16]
                                   0                           7 
    39 complet[2,17]
                                   0                           7 
    40 complet[2,18]
                                   0                           7 
    41 complet[2,19]
                                   0                           7 
    42 complet[3,1]                6                           6 
    43 complet[3,2]               -1                           6 
    44 complet[3,3]                4                           6 
    45 complet[3,4]                3                           6 
    46 complet[3,5]                2                           6 
    47 complet[3,6]                1                           6 
    48 complet[3,7]                0                           6 
    49 complet[3,8]                6                           6 
    50 complet[3,9]                0                           6 
    51 complet[3,10]
                                   0                           6 
    52 complet[3,11]
                                   0                           6 
    53 complet[3,12]
                                   0                           6 
    54 complet[3,13]
                                   0                           6 
    55 complet[3,14]
                                   0                           6 
    56 complet[3,15]
                                   0                           6 
    57 complet[3,16]
                                   0                           6 
    58 complet[3,17]
                                   0                           6 
    59 complet[3,18]
                                   0                           6 
    60 complet[3,19]
                                   0                           6 
    61 cmax[1,1]                  14            -0               
    62 cmax[1,2]                  13            -0               
    63 cmax[1,3]                  12            -0               
    64 cmax[1,4]                  11            -0               
    65 cmax[1,5]                  10            -0               
    66 cmax[1,6]                   9            -0               
    67 cmax[1,7]                   8            -0               
    68 cmax[1,8]                   7            -0               
    69 cmax[1,9]                  15            -0               
    70 cmax[1,10]                 15            -0               
    71 cmax[1,11]                 15            -0               
    72 cmax[1,12]                 15            -0               
    73 cmax[1,13]                 15            -0               
    74 cmax[1,14]                 15            -0               
    75 cmax[1,15]                 15            -0               
    76 cmax[1,16]                 15            -0               
    77 cmax[1,17]                 15            -0               
    78 cmax[1,18]                 15            -0               
    79 cmax[1,19]                 15            -0               
    80 cmax[1,20]                 15            -0               
    81 cmax[1,21]                 15            -0               
    82 cmax[2,1]                  15            -0               
    83 cmax[2,2]                  15            -0               
    84 cmax[2,3]                  15            -0               
    85 cmax[2,4]                  15            -0               
    86 cmax[2,5]                  15            -0               
    87 cmax[2,6]                  15            -0               
    88 cmax[2,7]                  15            -0               
    89 cmax[2,8]                  15            -0               
    90 cmax[2,9]                   6            -0               
    91 cmax[2,10]                  5            -0               
    92 cmax[2,11]                  4            -0               
    93 cmax[2,12]                  3            -0               
    94 cmax[2,13]                  2            -0               
    95 cmax[2,14]                  1            -0               
    96 cmax[2,15]                  0            -0               
    97 cmax[2,16]                 15            -0               
    98 cmax[2,17]                 15            -0               
    99 cmax[2,18]                 15            -0               
   100 cmax[2,19]                 15            -0               
   101 cmax[2,20]                 15            -0               
   102 cmax[2,21]                 15            -0               
   103 cmax[3,1]                  15            -0               
   104 cmax[3,2]                  15            -0               
   105 cmax[3,3]                  12            -0               
   106 cmax[3,4]                  11            -0               
   107 cmax[3,5]                  10            -0               
   108 cmax[3,6]                   9            -0               
   109 cmax[3,7]                   8            -0               
   110 cmax[3,8]                   7            -0               
   111 cmax[3,9]                  15            -0               
   112 cmax[3,10]                 15            -0               
   113 cmax[3,11]                 15            -0               
   114 cmax[3,12]                 15            -0               
   115 cmax[3,13]                 15            -0               
   116 cmax[3,14]                 15            -0               
   117 cmax[3,15]                 15            -0               
   118 cmax[3,16]                 15            -0               
   119 cmax[3,17]                 15            -0               
   120 cmax[3,18]                 15            -0               
   121 cmax[3,19]                 15            -0               
   122 cmax[3,20]                 15            -0               
   123 cmax[3,21]                 15            -0               
   124 ressource[1,1]
                                   1                           4 
   125 ressource[1,2]
                                   1                           4 
   126 ressource[1,3]
                                   3                           4 
   127 ressource[1,4]
                                   3                           4 
   128 ressource[1,5]
                                   3                           4 
   129 ressource[1,6]
                                   3                           4 
   130 ressource[1,7]
                                   3                           4 
   131 ressource[1,8]
                                   3                           4 
   132 ressource[1,9]
                                   4                           4 
   133 ressource[1,10]
                                   4                           4 
   134 ressource[1,11]
                                   4                           4 
   135 ressource[1,12]
                                   4                           4 
   136 ressource[1,13]
                                   4                           4 
   137 ressource[1,14]
                                   4                           4 
   138 ressource[1,15]
                                   4                           4 
   139 ressource[1,16]
                                   0                           4 
   140 ressource[1,17]
                                   0                           4 
   141 ressource[1,18]
                                   0                           4 
   142 ressource[1,19]
                                   0                           4 
   143 ressource[1,20]
                                   0                           4 
   144 ressource[1,21]
                                   0                           4 
   145 ressource[2,1]
                                   5                          11 
   146 ressource[2,2]
                                   5                          11 
   147 ressource[2,3]
                                   6                          11 
   148 ressource[2,4]
                                   6                          11 
   149 ressource[2,5]
                                   6                          11 
   150 ressource[2,6]
                                   6                          11 
   151 ressource[2,7]
                                   6                          11 
   152 ressource[2,8]
                                   6                          11 
   153 ressource[2,9]
                                   6                          11 
   154 ressource[2,10]
                                   6                          11 
   155 ressource[2,11]
                                   6                          11 
   156 ressource[2,12]
                                   6                          11 
   157 ressource[2,13]
                                   6                          11 
   158 ressource[2,14]
                                   6                          11 
   159 ressource[2,15]
                                   6                          11 
   160 ressource[2,16]
                                   0                          11 
   161 ressource[2,17]
                                   0                          11 
   162 ressource[2,18]
                                   0                          11 
   163 ressource[2,19]
                                   0                          11 
   164 ressource[2,20]
                                   0                          11 
   165 ressource[2,21]
                                   0                          11 
   166 ressource[3,1]
                                   2                          16 
   167 ressource[3,2]
                                   2                          16 
   168 ressource[3,3]
                                  10                          16 
   169 ressource[3,4]
                                  10                          16 
   170 ressource[3,5]
                                  10                          16 
   171 ressource[3,6]
                                  10                          16 
   172 ressource[3,7]
                                  10                          16 
   173 ressource[3,8]
                                  10                          16 
   174 ressource[3,9]
                                   6                          16 
   175 ressource[3,10]
                                   6                          16 
   176 ressource[3,11]
                                   6                          16 
   177 ressource[3,12]
                                   6                          16 
   178 ressource[3,13]
                                   6                          16 
   179 ressource[3,14]
                                   6                          16 
   180 ressource[3,15]
                                   6                          16 
   181 ressource[3,16]
                                   0                          16 
   182 ressource[3,17]
                                   0                          16 
   183 ressource[3,18]
                                   0                          16 
   184 ressource[3,19]
                                   0                          16 
   185 ressource[3,20]
                                   0                          16 
   186 ressource[3,21]
                                   0                          16 
   187 obj                        15                             

   No. Column name       Activity     Lower bound   Upper bound
------ ------------    ------------- ------------- -------------
     1 x[1,1]       *              1             0             1 
     2 x[1,2]       *              1             0             1 
     3 x[1,3]       *              1             0             1 
     4 x[1,4]       *              1             0             1 
     5 x[1,5]       *              1             0             1 
     6 x[1,6]       *              1             0             1 
     7 x[1,7]       *              1             0             1 
     8 x[1,8]       *              1             0             1 
     9 x[1,9]       *              0             0             1 
    10 x[1,10]      *              0             0             1 
    11 x[1,11]      *              0             0             1 
    12 x[1,12]      *              0             0             1 
    13 x[1,13]      *              0             0             1 
    14 x[1,14]      *              0             0             1 
    15 x[1,15]      *              0             0             1 
    16 x[1,16]      *              0             0             1 
    17 x[1,17]      *              0             0             1 
    18 x[1,18]      *              0             0             1 
    19 x[1,19]      *              0             0             1 
    20 x[1,20]      *              0             0             1 
    21 x[1,21]      *              0             0             1 
    22 x[2,1]       *              0             0             1 
    23 x[2,2]       *              0             0             1 
    24 x[2,3]       *              0             0             1 
    25 x[2,4]       *              0             0             1 
    26 x[2,5]       *              0             0             1 
    27 x[2,6]       *              0             0             1 
    28 x[2,7]       *              0             0             1 
    29 x[2,8]       *              0             0             1 
    30 x[2,9]       *              1             0             1 
    31 x[2,10]      *              1             0             1 
    32 x[2,11]      *              1             0             1 
    33 x[2,12]      *              1             0             1 
    34 x[2,13]      *              1             0             1 
    35 x[2,14]      *              1             0             1 
    36 x[2,15]      *              1             0             1 
    37 x[2,16]      *              0             0             1 
    38 x[2,17]      *              0             0             1 
    39 x[2,18]      *              0             0             1 
    40 x[2,19]      *              0             0             1 
    41 x[2,20]      *              0             0             1 
    42 x[2,21]      *              0             0             1 
    43 x[3,1]       *              0             0             1 
    44 x[3,2]       *              0             0             1 
    45 x[3,3]       *              1             0             1 
    46 x[3,4]       *              1             0             1 
    47 x[3,5]       *              1             0             1 
    48 x[3,6]       *              1             0             1 
    49 x[3,7]       *              1             0             1 
    50 x[3,8]       *              1             0             1 
    51 x[3,9]       *              0             0             1 
    52 x[3,10]      *              0             0             1 
    53 x[3,11]      *              0             0             1 
    54 x[3,12]      *              0             0             1 
    55 x[3,13]      *              0             0             1 
    56 x[3,14]      *              0             0             1 
    57 x[3,15]      *              0             0             1 
    58 x[3,16]      *              0             0             1 
    59 x[3,17]      *              0             0             1 
    60 x[3,18]      *              0             0             1 
    61 x[3,19]      *              0             0             1 
    62 x[3,20]      *              0             0             1 
    63 x[3,21]      *              0             0             1 
    64 z                          15                             

Integer feasibility conditions:

KKT.PE: max.abs.err = 0.00e+00 on row 0
        max.rel.err = 0.00e+00 on row 0
        High quality

KKT.PB: max.abs.err = 0.00e+00 on row 0
        max.rel.err = 0.00e+00 on row 0
        High quality

End of output
